NAME : mtsp150.38714378.tour
COMMENT : Length = 38714378
COMMENT : Found by LKH-3 [Keld Helsgaun] Tue Mar 15 22:40:30 2022
TYPE : TOUR
DIMENSION : 154
TOUR_SECTION
1
58
151
51
152
108
3
69
73
44
2
144
64
54
40
93
138
133
148
142
28
131
47
32
113
132
79
130
80
92
8
42
122
89
31
139
97
143
119
118
129
66
4
53
124
70
94
16
18
137
134
19
75
49
6
90
24
10
72
21
127
141
59
104
36
38
111
99
102
26
88
84
74
11
63
15
114
109
91
98
45
86
60
7
35
9
120
12
115
123
46
14
100
41
83
128
43
146
71
17
52
27
62
136
105
29
125
106
22
67
101
56
65
76
33
103
5
81
78
121
87
57
48
30
96
37
147
95
13
126
82
116
50
39
107
112
55
85
68
145
140
135
34
149
117
20
150
23
77
110
153
25
154
61
-1
EOF
